
-87.6
-61.3
-35.1
-26.1
-26.0
-17.1
-16.8
-16.6
-16.4
-16.2
-16.2
-16.2
-16.0
-16.0
-16.0
-16.0
-16.0
-16.0
-16.0
-16.0
-16.0
-16.0
-16.0
-16.0
-16.0
-16.0
-88.4
-36.5
-27.1
-26.8
-26.3
-26.1
-17.3
-17.1
-17.1
-17.0
-17.0
-17.0
-17.0
-17.0
-16.9
-16.9
-16.8
-16.7
-16.5
-16.5
-16.5
-16.5
-5.6
-5.6
-5.6
-5.6
-5.6
-5.6
-5.6
-5.6
-5.6
-5.6
-5.6
-5.6
-5.6
-5.6
-5.6
-5.6
-5.6
-5.6
-5.6
-5.6